(declare-fun e () String)
(declare-fun g () String)
(declare-fun b () String)
(declare-fun d () String)
(declare-fun f () String)
(declare-fun a () String)
(declare-fun h () String)
(assert (= h (str.++ e h)))
(assert (= (str.++ b "hb" a) (str.++ d "ag" e "hc")))
(assert (= (str.++ g d "cg") (str.++ "bbg" b f)))

(check-sat)
